dag/eco9.nl
g9 0 2 0 8 20140224 0 1 0 241	# problem eco9
 8 8 0 0 8	# vars, constraints, objectives, ranges, eqns
 7 0	# nonlinear constraints, objectives
 0 0	# network constraints: nonlinear, linear
 8 0 0	# nonlinear vars in constraints, objectives, both
 0 0 0 1	# linear network variables; functions; arith, flags
 0 0 0 0 0	# discrete variables: binary, integer, nonlinear (b,c,o)
 55 0	# nonzeros in Jacobian, gradients
 5 2	# max name lengths: constraints, variables
 0 0 0 0 0	# common exprs: b,c,o,c1,o1
C0
o54
4
o2
v1
o0
v0
v2
o2
v3
o0
v2
v4
o2
v5
o0
v4
v6
o16
o2
v7
o1
n0.125
v6
C1
o54
4
o2
v2
o0
v0
v4
o2
v3
o0
v1
v5
o2
v4
v6
o16
o2
v7
o1
n0.25
v5
C2
o54
4
o2
v2
o0
n1
v5
o2
v3
o0
v0
v6
o2
v1
v4
o16
o2
v7
o1
n0.375
v4
C3
o54
4
o2
v0
v4
o2
v1
v5
o2
v2
v6
o16
o2
v7
o1
n0.5
v3
C4
o54
3
o2
v0
v5
o2
v1
v6
o16
o2
v7
o1
n0.625
v2
C5
o1
o2
v0
v6
o2
v7
o1
n0.75
v1
C6
o16
o2
v7
o1
n0.875
v0
C7
n0
d8
0 0
1 0
2 0
3 0
4 0
5 0
6 0
7 0
x8
0 0.5599685017963346
1 -0.7000568991798829
2 0.20027878700740862
3 -0.4430450278880067
4 0.016634108638931888
5 -0.31182397680052165
6 -0.0771282829610393
7 -0.24482721061322454
r
4 0
4 0
4 0
4 0
4 0
4 0
4 0
4 -1
b
0 -100 100
0 -100 100
0 -100 100
0 -100 100
0 -100 100
0 -100 100
0 -100 100
0 -100 100
k7
8
15
21
26
32
39
47
J0 8
0 1
1 0
2 0
3 0
4 0
5 0
6 0
7 0
J1 8
0 0
1 1
2 0
3 0
4 0
5 0
6 0
7 0
J2 8
0 0
1 0
2 0
3 0
4 0
5 0
6 0
7 0
J3 8
0 0
1 0
2 0
3 1
4 0
5 0
6 0
7 0
J4 7
0 0
1 0
2 0
4 1
5 0
6 0
7 0
J5 5
0 0
1 0
5 1
6 0
7 0
J6 3
0 0
6 1
7 0
J7 8
0 1
1 1
2 1
3 1
4 1
5 1
6 1
7 1
