data/eco9.log

8 variables, all nonlinear
8 constraints; 55 nonzeros
	7 nonlinear constraints
	1 linear constraint
	8 equality constraints
0 objectives.

ignore this line 55
@@@ Problem statistics
constraints: 8 variables: 8 nonzeros: 55
Variable vector:
21.841811250861312
-62.02538939599392
84.37841038980366
91.43114027550848
-78.85483602032885
42.82124972854294
10.306413741941057
-47.37298555654683

Residual vector:
-9479.135169765172
-9457.987942856174
15281.272049671346
-7724.9467796814915
-3750.469608251323
3241.7896085163256
-982.9540328119555
63.52581441378786

gjh: "eco9.gjh" written.  Execute
 
	include "eco9.gjh"
	remove "eco9.gjh";
